NAME : eil101.opt.tour.new
COMMENT : Length 646.497547624, ozeasx@gmail.com
TYPE : TOUR
DIMENSION : 101
TOUR_SECTION
1
69
31
88
7
82
48
19
11
62
10
70
30
32
90
63
64
49
36
47
46
8
45
17
84
5
60
83
18
52
89
6
94
95
97
92
59
96
99
93
98
37
100
91
85
61
16
86
38
44
14
42
43
15
57
2
87
13
58
40
53
101
27
28
26
12
68
80
54
4
21
73
72
74
22
41
75
56
23
67
39
25
55
24
29
78
34
35
71
65
66
20
51
9
81
33
79
3
77
76
50
-1
EOF
